% Car frame parameters
w_cf = [250, 300, 300, 300, 300, 300, 300, 300, 300, 300, 300, 300, 300, 300, 300, 300, 300, 300, 300, 300, 300, 300, 250, 250, 430];
d_cf = [806, 756, 856, 956, 1056, 756, 856, 956, 1056, 756, 856, 956, 1056, 956, 1056, 1206, 856, 956, 1056, 1206, 1056, 1206, 806, 806, 656];
maxOh = [150, 150, 150, 250, 300, 150, 150, 250, 300, 150, 150, 250, 300, 250, 300, 240, 200, 250, 300, 350, 300, 350, 100, 100, 100];
pStaf = [0, 100, 100, 100, 100, 100, 100, 100, 100, 100, 100, 100, 100, 100, 100, 100, 100, 100, 100, 100, 100, 100, 0, 0, 100];
cr_d_cf = [128, 128, 128, 128, 128, 128, 128, 128, 128, 128, 128, 128, 128, 128, 128, 128, 128, 128, 128, 128, 128, 128, 128, 128, 128];
clamps_w = [165, 240, 240, 240, 240, 240, 240, 240, 240, 240, 240, 240, 240, 240, 240, 240, 240, 240, 240, 240, 240, 240, 165, 165, 370];
clamps_d = [806, 786, 886, 986, 1086, 786, 886, 986, 1086, 786, 886, 986, 1086, 986, 1086, 1236, 886, 986, 1086, 1236, 1086, 1236, 806, 806, 686];
clamps_s = [0, -15, -15, -15, -15, -15, -15, -15, -15, -15, -15, -15, -15, -15, -15, -15, -15, -15, -15, -15, -15, -15, 0, 0, -15];
brack_w1 = [20, 30, 30, 30, 30, 30, 30, 30, 30, 30, 30, 30, 30, 30, 30, 30, 30, 30, 30, 30, 30, 30, 20, 20, 30];
brack_w2 = [230, 255, 255, 255, 255, 255, 255, 255, 255, 255, 255, 255, 255, 255, 255, 255, 255, 255, 255, 255, 255, 255, 230, 230, 355];
brack_d = [806, 956, 1056, 1156, 1256, 956, 1056, 1156, 1256, 956, 1056, 1156, 1256, 1156, 1256, 1406, 1056, 1156, 1256, 1406, 1256, 1406, 806, 806, 856];

% Car door parameters
opening = [500, 550, 600, 650, 700, 750, 800, 850, 900, 500, 550, 600, 650, 700, 600, 650, 700, 750, 800, 850, 900, 950, 1000, 600, 650, 700, 750, 800, 850, 900, 900, 950, 1000, 1050, 600, 650, 700, 750, 800, 850, 700, 700, 700, 750, 800, 850, 900, 700, 750, 800, 850, 900, 650, 700, 750, 800, 850, 900, 900, 950, 1000, 1050, 700, 750, 800, 850, 900, 950, 1000, 1050, 550, 650, 700, 750, 800, 850, 900, 700, 750, 800, 850, 900, 700, 750, 800, 850, 900, 700, 750, 800, 850, 900, 1000, 600, 650, 700, 750, 800, 850, 900, 600, 650, 700, 750, 800, 850, 900, 600, 650, 700, 750, 800, 850, 900, 1000, 600, 650, 600, 650, 700, 750, 800, 850, 900, 600, 650, 600, 650, 700, 750, 800, 850, 900, 600, 650, 700, 750, 800, 850, 900, 600, 650, 700, 750, 800, 850, 900, 1000, 550, 600, 650, 700, 750, 800, 850, 900, 950, 1000, 1050, 1100, 1150, 1200, 600, 650, 700, 750, 800, 850, 880, 900, 600, 650, 600, 650, 700, 750, 800, 850, 600, 650, 700, 750, 800, 850, 600, 650, 600, 650, 700, 750, 800, 850, 900, 950, 1000, 600, 650, 700, 750, 800, 850, 900, 950, 1000, 600, 650, 700, 750, 800, 850, 900, 600, 650, 700, 750, 800, 850, 900, 900, 950, 1000, 600, 650, 550, 600, 650, 700, 750, 800, 850, 900, 950, 1000, 1050, 1100, 1150];
step_cd = [90, 90, 90, 90, 90, 90, 90, 90, 90, 50, 50, 50, 50, 50, 135, 135, 135, 135, 135, 135, 135, 135, 135, 90, 90, 90, 90, 90, 90, 90, 135, 135, 135, 135, 100, 100, 100, 100, 100, 100, 50, 25, 90, 90, 90, 90, 90, 50, 50, 50, 50, 50, 50, 50, 50, 50, 50, 50, 120, 120, 120, 120, 75, 75, 75, 75, 75, 75, 75, 75, 100, 90, 90, 90, 90, 90, 90, 90, 90, 90, 90, 90, 70, 70, 70, 70, 70, 105, 105, 105, 105, 105, 105, 90, 90, 90, 90, 90, 90, 90, 70, 70, 70, 70, 70, 70, 70, 135, 135, 135, 135, 135, 135, 135, 135, 54, 54, 90, 90, 90, 90, 90, 90, 90, 30, 30, 60, 60, 60, 60, 60, 60, 60, 60, 60, 60, 60, 60, 60, 60, 90, 90, 90, 90, 90, 90, 90, 90, 100, 100, 100, 100, 100, 100, 100, 100, 100, 100, 100, 100, 100, 100, 45, 45, 45, 45, 45, 45, 45, 45, 30, 30, 45, 45, 45, 45, 45, 45, 90, 90, 90, 90, 90, 90, 75, 75, 90, 90, 90, 90, 90, 90, 90, 90, 90, 136, 136, 136, 136, 136, 136, 136, 136, 136, 90, 90, 90, 90, 90, 90, 90, 90, 90, 90, 90, 90, 90, 90, 136, 136, 136, 75, 75, 100, 100, 100, 100, 100, 100, 100, 100, 100, 100, 100, 100, 100];
step_dist = [30, 30, 30, 30, 30, 30, 30, 30, 30, 30, 30, 30, 30, 30, 30, 30, 30, 30, 30, 30, 30, 30, 30, 30, 30, 30, 30, 30, 30, 30, 30, 30, 30, 30, 30, 30, 30, 30, 30, 30, 30, 30, 30, 30, 30, 30, 30, 30, 30, 30, 30, 30, 30, 30, 30, 30, 30, 30, 30, 30, 30, 30, 30, 30, 30, 30, 30, 30, 30, 30, 30, 30, 30, 30, 30, 30, 30, 30, 30, 30, 30, 30, 30, 30, 30, 30, 30, 30, 30, 30, 30, 30, 30, 30, 30, 30, 30, 30, 30, 30, 30, 30, 30, 30, 30, 30, 30, 30, 30, 30, 30, 30, 30, 30, 30, 30, 30, 30, 30, 30, 30, 30, 30, 30, 30, 30, 30, 30, 30, 30, 30, 30, 30, 30, 30, 30, 30, 30, 30, 30, 30, 30, 30, 30, 30, 30, 30, 30, 30, 30, 30, 30, 30, 30, 30, 30, 30, 30, 30, 30, 30, 30, 25, 25, 25, 25, 25, 25, 25, 25, 25, 25, 25, 25, 25, 25, 25, 25, 30, 30, 30, 30, 30, 30, 30, 30, 30, 30, 30, 30, 30, 30, 30, 30, 30, 30, 30, 30, 30, 30, 30, 30, 30, 30, 30, 30, 30, 30, 30, 30, 30, 30, 30, 30, 30, 30, 30, 30, 30, 30, 30, 30, 30, 30, 30, 30, 30, 30, 30, 30, 30, 30, 30, 30, 30, 30];
axL_cd = [520, 570, 620, 670, 720, 770, 820, 870, 920, 520, 570, 620, 670, 720, 518, 559, 601, 642, 684, 725, 767, 808, 850, 470, 507, 545, 583, 620, 658, 695, 600, 635, 670, 700, 300, 325, 350, 375, 400, 425, 720, 720, 720, 770, 820, 870, 920, 720, 770, 820, 870, 920, 540, 565, 590, 620, 658, 695, 740, 780, 820, 860, 674, 696, 691, 725, 740, 780, 820, 860, 275, 540, 565, 590, 620, 658, 695, 730, 780, 830, 880, 930, 730, 780, 830, 880, 930, 603, 645, 686, 728, 770, 853, 635, 685, 735, 785, 835, 885, 935, 635, 685, 735, 785, 835, 885, 935, 525, 566, 608, 650, 691, 733, 775, 858, 625, 675, 475, 512, 550, 587, 625, 662, 700, 625, 675, 475, 512, 550, 587, 625, 662, 700, 635, 685, 735, 785, 835, 885, 935, 525, 566, 608, 650, 691, 733, 775, 858, 275, 300, 325, 350, 375, 400, 425, 450, 475, 500, 525, 550, 575, 600, 501, 526, 551, 589, 626, 664, 689, 701, 625, 675, 651, 701, 751, 801, 851, 901, 705, 680, 725, 795, 825, 875, 645, 695, 575, 600, 625, 650, 700, 733, 775, 816, 858, 580, 605, 630, 655, 701, 733, 775, 816, 858, 505, 530, 555, 587, 630, 662, 705, 505, 530, 555, 587, 630, 662, 705, 665, 690, 715, 950, 1025, 275, 300, 325, 350, 375, 400, 425, 450, 475, 500, 525, 550, 575];
axR_cd = [280, 305, 330, 355, 380, 405, 430, 455, 480, 520, 570, 620, 670, 720, 330, 355, 380, 405, 430, 455, 480, 505, 530, 470, 507, 545, 583, 620, 658, 695, 600, 635, 670, 700, 300, 325, 350, 375, 400, 425, 720, 720, 380, 405, 430, 455, 480, 380, 405, 430, 455, 480, 540, 565, 590, 620, 658, 695, 480, 521, 546, 571, 396, 421, 446, 471, 480, 521, 546, 571, 275, 540, 565, 590, 620, 658, 695, 380, 405, 430, 455, 480, 380, 405, 430, 455, 480, 360, 385, 410, 435, 460, 510, 325, 350, 375, 400, 425, 450, 475, 325, 350, 375, 400, 425, 450, 475, 325, 350, 375, 400, 425, 450, 475, 525, 625, 675, 475, 512, 550, 587, 625, 662, 700, 625, 675, 475, 512, 550, 587, 625, 662, 700, 325, 350, 375, 400, 425, 450, 475, 325, 350, 375, 400, 425, 450, 475, 525, 275, 300, 325, 350, 375, 400, 425, 450, 475, 500, 525, 550, 575, 600, 501, 526, 551, 589, 626, 664, 689, 701, 625, 675, 393, 418, 443, 468, 493, 518, 375, 400, 425, 450, 475, 500, 645, 695, 375, 400, 425, 450, 475, 500, 525, 550, 575, 375, 400, 425, 450, 475, 500, 525, 550, 575, 505, 530, 555, 587, 630, 662, 705, 505, 530, 555, 587, 630, 662, 705, 665, 690, 715, 375, 400, 275, 300, 325, 350, 375, 400, 425, 450, 475, 500, 525, 550, 575];
type_door = [1, 1, 1, 1, 1, 1, 1, 1, 1, 0, 0, 0, 0, 0, 1, 1, 1, 1, 1, 1, 1, 1, 1, 0, 0, 0, 0, 0, 0, 0, 0, 0, 0, 0, 0, 0, 0, 0, 0, 0, 0, 0, 1, 1, 1, 1, 1, 1, 1, 1, 1, 1, 0, 0, 0, 0, 0, 0, 1, 1, 1, 1, 1, 1, 1, 1, 1, 1, 1, 1, 0, 0, 0, 0, 0, 0, 0, 1, 1, 1, 1, 1, 1, 1, 1, 1, 1, 1, 1, 1, 1, 1, 1, 1, 1, 1, 1, 1, 1, 1, 1, 1, 1, 1, 1, 1, 1, 1, 1, 1, 1, 1, 1, 1, 1, 0, 0, 0, 0, 0, 0, 0, 0, 0, 0, 0, 0, 0, 0, 0, 0, 0, 0, 1, 1, 1, 1, 1, 1, 1, 1, 1, 1, 1, 1, 1, 1, 1, 0, 0, 0, 0, 0, 0, 0, 0, 0, 0, 0, 0, 0, 0, 0, 0, 0, 0, 0, 0, 0, 0, 0, 0, 1, 1, 1, 1, 1, 1, 1, 1, 1, 1, 1, 1, 0, 0, 1, 1, 1, 1, 1, 1, 1, 1, 1, 1, 1, 1, 1, 1, 1, 1, 1, 1, 0, 0, 0, 0, 0, 0, 0, 0, 0, 0, 0, 0, 0, 0, 0, 0, 0, 1, 1, 0, 0, 0, 0, 0, 0, 0, 0, 0, 0, 0, 0, 0];

% Landing door parameters
step_ld = [90, 90, 90, 90, 90, 90, 90, 90, 90, 50, 50, 50, 50, 50, 135, 135, 135, 135, 135, 135, 135, 135, 135, 90, 90, 90, 90, 90, 90, 90, 135, 135, 135, 135, 50, 50, 50, 50, 50, 50, 50, 50, 90, 90, 90, 90, 90, 90, 90, 90, 90, 90, 90, 90, 90, 90, 90, 90, 120, 120, 120, 120, 120, 120, 120, 120, 120, 120, 120, 120, 50, 90, 90, 90, 90, 90, 90, 90, 90, 90, 90, 90, 70, 70, 70, 70, 70, 105, 105, 105, 105, 105, 105, 90, 90, 90, 90, 90, 90, 90, 75, 75, 75, 75, 75, 75, 75, 135, 135, 135, 135, 135, 135, 135, 135, 54, 54, 90, 90, 90, 90, 90, 90, 90, 30, 30, 60, 60, 60, 60, 60, 60, 60, 60, 60, 60, 60, 60, 60, 60, 90, 90, 90, 90, 90, 90, 90, 90, 50, 50, 50, 50, 50, 50, 50, 50, 50, 50, 50, 50, 50, 50, 45, 45, 45, 45, 45, 45, 45, 45, 30, 30, 45, 45, 45, 45, 45, 45, 90, 90, 90, 90, 90, 90, 75, 75, 136, 136, 136, 136, 136, 136, 136, 136, 136, 136, 136, 136, 136, 136, 136, 136, 136, 136, 90, 90, 90, 90, 90, 90, 90, 90, 90, 90, 90, 90, 90, 90, 136, 136, 136, 75, 75, 50, 50, 50, 50, 50, 50, 50, 50, 50, 50, 50, 50, 50];
std_al = [0, 0, 0, 0, 0, 0, 0, 0, 0, 0, 0, 0, 0, 0, 0, 0, 0, 0, 0, 0, 0, 0, 0, 0, 0, 0, 0, 0, 0, 0, 0, 0, 0, 0, 50, 50, 50, 50, 50, 50, 0, 0, 0, 0, 0, 0, 0, 0, 0, 0, 0, 0, 0, 0, 0, 0, 0, 0, 0, 0, 0, 0, 0, 0, 0, 0, 0, 0, 0, 0, 50, 0, 0, 0, 0, 0, 0, 0, 0, 0, 0, 0, 0, 0, 0, 0, 0, 0, 0, 0, 0, 0, 0, 0, 0, 0, 0, 0, 0, 0, 0, 0, 0, 0, 0, 0, 0, 0, 0, 0, 0, 0, 0, 0, 0, 0, 0, 0, 0, 0, 0, 0, 0, 0, 0, 0, 0, 0, 0, 0, 0, 0, 0, 0, 0, 0, 0, 0, 0, 0, 0, 0, 0, 0, 0, 0, 0, 0, 50, 50, 50, 50, 50, 50, 50, 50, 50, 50, 50, 50, 50, 50, 0, 0, 0, 0, 0, 0, 0, 0, 0, 0, 0, 0, 0, 0, 0, 0, 0, 0, 0, 0, 0, 0, 0, 0, 0, 0, 0, 0, 0, 0, 0, 0, 0, 0, 0, 0, 0, 0, 0, 0, 0, 0, 0, 0, 0, 0, 0, 0, 0, 0, 0, 0, 0, 0, 0, 0, 0, 0, 0, 0, 0, 50, 50, 50, 50, 50, 50, 50, 50, 50, 50, 50, 50, 50];
axL_ld = [520, 570, 620, 670, 720, 770, 820, 870, 920, 520, 570, 620, 670, 720, 518, 559, 601, 642, 684, 725, 767, 808, 850, 470, 507, 545, 583, 620, 658, 695, 600, 635, 670, 700, 275, 300, 325, 350, 375, 400, 736, 736, 736, 770, 839, 870, 939, 736, 770, 839, 870, 939, 569, 594, 619, 644, 669, 719, 794, 819, 844, 911, 619, 644, 694, 719, 794, 819, 844, 911, 250, 569, 594, 619, 644, 669, 719, 720, 770, 820, 870, 920, 720, 770, 820, 870, 920, 603, 645, 686, 728, 770, 853, 645, 695, 745, 795, 845, 895, 945, 645, 695, 745, 795, 845, 895, 945, 540, 582, 625, 665, 705, 748, 790, 875, 650, 700, 540, 567, 590, 612, 650, 688, 725, 650, 700, 540, 567, 590, 612, 650, 688, 725, 645, 695, 745, 795, 845, 895, 945, 540, 582, 625, 665, 705, 748, 790, 875, 250, 275, 300, 325, 350, 375, 400, 425, 450, 475, 500, 525, 550, 575, 501, 526, 551, 589, 626, 664, 689, 701, 625, 675, 651, 701, 751, 801, 851, 901, 675, 700, 760, 835, 860, 885, 645, 670, 650, 675, 700, 725, 750, 775, 825, 850, 875, 650, 675, 700, 725, 750, 775, 825, 850, 875, 525, 553, 578, 603, 653, 678, 728, 525, 553, 578, 603, 653, 678, 728, 700, 725, 750, 965, 1040, 250, 275, 300, 325, 350, 375, 400, 425, 450, 475, 500, 525, 550];
axR_ld = [280, 305, 330, 355, 380, 405, 430, 455, 480, 520, 570, 620, 670, 720, 330, 355, 380, 405, 430, 455, 480, 505, 530, 470, 507, 545, 583, 620, 658, 695, 600, 635, 670, 700, 275, 300, 325, 350, 375, 400, 736, 736, 350, 375, 400, 425, 450, 350, 375, 400, 425, 450, 569, 594, 619, 644, 669, 719, 450, 475, 500, 525, 350, 375, 400, 425, 450, 475, 500, 525, 250, 569, 594, 619, 644, 669, 719, 425, 450, 475, 500, 525, 425, 450, 475, 500, 525, 425, 450, 475, 500, 525, 575, 320, 345, 370, 395, 420, 445, 470, 320, 345, 370, 395, 420, 445, 470, 320, 345, 370, 395, 420, 445, 470, 520, 650, 700, 540, 567, 590, 612, 650, 688, 725, 650, 700, 540, 567, 590, 612, 650, 688, 725, 320, 345, 370, 395, 420, 445, 470, 320, 345, 370, 395, 420, 445, 470, 520, 250, 275, 300, 325, 350, 375, 400, 425, 450, 475, 500, 525, 550, 575, 501, 526, 551, 589, 626, 664, 689, 701, 625, 675, 325, 350, 375, 400, 425, 450, 375, 400, 425, 450, 475, 500, 645, 670, 375, 400, 425, 450, 475, 500, 525, 550, 575, 375, 400, 425, 450, 475, 500, 525, 550, 575, 525, 553, 578, 603, 653, 678, 728, 525, 553, 578, 603, 653, 678, 728, 700, 725, 750, 375, 400, 250, 275, 300, 325, 350, 375, 400, 425, 450, 475, 500, 525, 550];
frameW = [120, 120, 120, 120, 120, 120, 120, 120, 120, 120, 120, 120, 120, 120, 120, 120, 120, 120, 120, 120, 120, 120, 120, 120, 120, 120, 120, 120, 120, 120, 120, 120, 120, 120, 120, 120, 120, 120, 120, 120, 120, 120, 120, 120, 120, 120, 120, 120, 120, 120, 120, 120, 120, 120, 120, 120, 120, 120, 120, 120, 120, 120, 120, 120, 120, 120, 120, 120, 120, 120, 120, 120, 120, 120, 120, 120, 120, 120, 120, 120, 120, 120, 120, 120, 120, 120, 120, 120, 120, 120, 120, 120, 120, 120, 120, 120, 120, 120, 120, 120, 120, 120, 120, 120, 120, 120, 120, 120, 120, 120, 120, 120, 120, 120, 120, 120, 120, 120, 120, 120, 120, 120, 120, 120, 120, 120, 120, 120, 120, 120, 120, 120, 120, 120, 120, 120, 120, 120, 120, 120, 120, 120, 120, 120, 120, 120, 120, 120, 120, 120, 120, 120, 120, 120, 120, 120, 120, 120, 120, 120, 120, 120, 90, 90, 90, 90, 90, 90, 90, 90, 90, 90, 90, 90, 90, 90, 90, 90, 120, 120, 120, 120, 120, 120, 120, 120, 120, 120, 120, 120, 120, 120, 120, 120, 120, 120, 120, 120, 120, 120, 120, 120, 120, 120, 120, 120, 120, 120, 120, 120, 120, 120, 120, 120, 120, 120, 120, 120, 120, 120, 120, 120, 120, 120, 120, 120, 120, 120, 120, 120, 120, 120, 120, 120, 120, 120];
delta_door_pack = [0, 0, 0, 0, 0, 0, 0, 0, 0, 0, 0, 0, 0, 0, 0, 0, 0, 0, 0, 0, 0, 0, 0, 0, 0, 0, 0, 0, 0, 0, 0, 0, 0, 0, 25, 25, 25, 25, 25, 25, 0, 0, 0, 0, 0, 0, 0, 0, 0, 0, 0, 0, 0, 0, 0, 0, 0, 0, 0, 0, 0, 0, 0, 0, 0, 0, 0, 0, 0, 0, 25, 0, 0, 0, 0, 0, 0, 0, 0, 0, 0, 0, 0, 0, 0, 0, 0, 0, 0, 0, 0, 0, 0, 0, 0, 0, 0, 0, 0, 0, 0, 0, 0, 0, 0, 0, 0, 0, 0, 0, 0, 0, 0, 0, 0, 0, 0, 0, 0, 0, 0, 0, 0, 0, 0, 0, 0, 0, 0, 0, 0, 0, 0, 0, 0, 0, 0, 0, 0, 0, 0, 0, 0, 0, 0, 0, 0, 0, 25, 25, 25, 25, 25, 25, 25, 25, 25, 25, 25, 25, 25, 25, 0, 0, 0, 0, 0, 0, 0, 0, 0, 0, 0, 0, 0, 0, 0, 0, 0, 0, 0, 0, 0, 0, 0, 0, 0, 0, 0, 0, 0, 0, 0, 0, 0, 0, 0, 0, 0, 0, 0, 0, 0, 0, 0, 0, 0, 0, 0, 0, 0, 0, 0, 0, 0, 0, 0, 0, 0, 0, 0, 0, 0, 25, 25, 25, 25, 25, 25, 25, 25, 25, 25, 25, 25, 25];